17	4
13	16	11	14	
0	0	0	0	0	3	2	3	4	
6	0	0	9	0	1	17	
2	8	0	0	0	3	5	11	16	
6	9	0	0	0	1	7	
2	8	0	0	0	3	6	9	17	
25	0	0	0	2	2	8	14	
25	3	0	0	0	2	10	13	
100	0	7	0	0	3	12	17	17	
50	4	0	0	0	2	14	17	
250	0	0	0	4	2	17	17	
100	0	0	1	0	1	15	
250	0	0	5	0	1	17	
4	0	7	0	0	3	15	17	17	
8	0	0	0	8	1	17	
9	0	8	0	0	1	17	
1	0	0	3	0	1	17	
0	0	0	0	0	0	
